c This is QMaxSAT 2017 based on 14.07
c This is Glucose 3.0
c This is MiniSat 2.2.0
c WARNING: for repeatability, setting FPU to use double precision
c card = mrwto, comp = 0, pmodel = 0, narr = 6, mct = 127, verb = 0
cr firstCPXsol 0 0 0
c top = 79249421
c |  Number of variables:    34848                                            |
c |  Number of clauses:      4415997                                          |
c |  Weight of hard clauses: 79249421                                         |
c |  Number of soft clauses: 103572                                           |
c |  Number of unit soft clauses: 0                                           |
c |  Maximum Cardinality (by unit): 501292740    (0           )               |
c last restart ## conflicts  :  0 369 
o 128779 | cpuTime 0.485585 s
c Sum of weights = 83548790
c A number of soft clauses remained = 17262
c MRWTO encoding for Pseudo-Boolean Constraints
c sizeMax=65536
c No.0 Divisor=11	generated by pow1
c No.1 Divisor=11	generated by pow1
c No.2 Divisor=11	generated by pow1
c No.3 Divisor=11	generated by pow1
c No.4 Divisor=11	generated by pow1
c p0= 11	p1= 11	p2= 11	p3= 11	p4= 11	
c number of digits = 6
c linkingVar[0].size = 11, linkingVar[1].size = 11, linkingVar[2].size = 11, linkingVar[3].size = 11, linkingVar[4].size = 9, linkingVar[5].size = 1, 
c Pseudo-Boolean Constraints: 619238 variables and 6544035 clauses
c Sum of weights = 83548790
c A number of soft clauses remained = 17262
c MRWTO encoding for Pseudo-Boolean Constraints
c sizeMax=65536
c No.0 Divisor=11	generated by pow1
c No.1 Divisor=11	generated by pow1
c No.2 Divisor=11	generated by pow1
c No.3 Divisor=11	generated by pow1
c No.4 Divisor=11	generated by pow1
c p0= 11	p1= 11	p2= 11	p3= 11	p4= 11	
c number of digits = 6
c linkingVar[0].size = 11, linkingVar[1].size = 11, linkingVar[2].size = 11, linkingVar[3].size = 11, linkingVar[4].size = 9, linkingVar[5].size = 1, 
c Pseudo-Boolean Constraints: 619238 variables and 6544035 clauses
c Sum of weights = 83548790
c A number of soft clauses remained = 17262
c MRWTO encoding for Pseudo-Boolean Constraints
c sizeMax=65536
c No.0 Divisor=11	generated by pow1
c No.1 Divisor=11	generated by pow1
c No.2 Divisor=11	generated by pow1
c No.3 Divisor=11	generated by pow1
c No.4 Divisor=11	generated by pow1
c p0= 11	p1= 11	p2= 11	p3= 11	p4= 11	
c number of digits = 6
c linkingVar[0].size = 11, linkingVar[1].size = 11, linkingVar[2].size = 11, linkingVar[3].size = 11, linkingVar[4].size = 9, linkingVar[5].size = 1, 
c Pseudo-Boolean Constraints: 619238 variables and 6544035 clauses
c Sum of weights = 83548790
c A number of soft clauses remained = 17262
c MRWTO encoding for Pseudo-Boolean Constraints
c sizeMax=65536
c No.0 Divisor=11	generated by pow1
c No.1 Divisor=11	generated by pow1
c No.2 Divisor=11	generated by pow1
c No.3 Divisor=11	generated by pow1
c No.4 Divisor=11	generated by pow1
c p0= 11	p1= 11	p2= 11	p3= 11	p4= 11	
c number of digits = 6
c linkingVar[0].size = 11, linkingVar[1].size = 11, linkingVar[2].size = 11, linkingVar[3].size = 11, linkingVar[4].size = 9, linkingVar[5].size = 1, 
c Pseudo-Boolean Constraints: 619238 variables and 6544035 clauses
c Sum of weights = 83548790
c A number of soft clauses remained = 17262
c MRWTO encoding for Pseudo-Boolean Constraints
c sizeMax=65536
c No.0 Divisor=11	generated by pow1
c No.1 Divisor=11	generated by pow1
c No.2 Divisor=11	generated by pow1
c No.3 Divisor=11	generated by pow1
c No.4 Divisor=11	generated by pow1
c p0= 11	p1= 11	p2= 11	p3= 11	p4= 11	
c number of digits = 6
c linkingVar[0].size = 11, linkingVar[1].size = 11, linkingVar[2].size = 11, linkingVar[3].size = 11, linkingVar[4].size = 9, linkingVar[5].size = 1, 
c Pseudo-Boolean Constraints: 619238 variables and 6544035 clauses
c Sum of weights = 83548790
c A number of soft clauses remained = 17262
c MRWTO encoding for Pseudo-Boolean Constraints
c sizeMax=65536
c No.0 Divisor=11	generated by pow1
c No.1 Divisor=11	generated by pow1
c No.2 Divisor=11	generated by pow1
c No.3 Divisor=11	generated by pow1
c No.4 Divisor=11	generated by pow1
c p0= 11	p1= 11	p2= 11	p3= 11	p4= 11	
c number of digits = 6
c linkingVar[0].size = 11, linkingVar[1].size = 11, linkingVar[2].size = 11, linkingVar[3].size = 11, linkingVar[4].size = 9, linkingVar[5].size = 1, 
c Pseudo-Boolean Constraints: 619238 variables and 6544035 clauses
s UNKNOWN
c Search is stopped by a limit (maybe time-limit)
cr positiVarArr: [ | 7(1->2) | 140(1->3) | 273(1->4) | 406(1->5) | 539(1->6) | 672(1->7) | 805(2->8) | 938(3->9) | 1071(4->10) | 1204(5->11) | 1337(6->12) | 1470(7->13) | 1603(8->14) | 1736(9->15) | 1869(10->16) | 2002(11->17) | 2135(12->18) | 2268(13->19) | 2401(14->20) | 2534(15->21) | 2667(16->22) | 2800(17->23) | 2933(18->24) | 3066(19->25) | 3199(20->26) | 3332(21->27) | 3465(22->28) | 3598(23->29) | 3731(24->30) | 3864(25->31) | 3997(26->32) | 4130(27->33) | 4263(28->34) | 4396(29->35) | 4529(30->36) | 4662(31->37) | 4795(32->38) | 4928(33->39) | 5061(34->40) | 5194(35->41) | 5327(36->42) | 5460(37->43) | 5593(38->44) | 5726(39->45) | 5859(40->46) | 5992(41->47) | 6125(42->48) | 6258(43->49) | 6391(44->50) | 6524(45->51) | 6657(46->52) | 6790(47->53) | 6923(48->54) | 7056(49->55) | 7189(50->56) | 7322(51->57) | 7455(52->58) | 7588(53->59) | 7721(54->60) | 7854(55->61) | 7987(56->62) | 8120(57->63) | 8253(58->64) | 8386(59->65) | 8519(60->66) | 8652(61->67) | 8785(62->68) | 8918(63->69) | 9051(64->70) | 9184(65->71) | 9317(66->72) | 9450(67->73) | 9583(68->74) | 9716(69->75) | 9849(70->76) | 9982(71->77) | 10115(72->78) | 10248(73->79) | 10381(74->80) | 10514(75->81) | 10647(76->82) | 10780(77->83) | 10913(78->84) | 11046(79->85) | 11179(80->86) | 11312(81->87) | 11445(82->88) | 11578(83->89) | 11711(84->90) | 11844(85->91) | 11977(86->92) | 12110(87->93) | 12243(88->94) | 12376(89->95) | 12509(90->96) | 12642(91->97) | 12775(92->98) | 12908(93->99) | 13041(94->100) | 13174(95->101) | 13307(96->102) | 13440(97->103) | 13573(98->104) | 13706(99->105) | 13839(100->106) | 13972(101->107) | 14105(102->108) | 14238(103->109) | 14371(104->110) | 14504(105->111) | 14637(106->112) | 14770(107->113) | 14903(108->114) | 15036(109->115) | 15169(110->116) | 15302(111->117) | 15435(112->118) | 15568(113->119) | 15701(114->120) | 15834(115->121) | 15967(116->122) | 16100(117->123) | 16233(118->124) | 16366(119->125) | 16499(120->126) | 16632(121->127) | 16638(122->1) | 16769(123->1) | 16900(124->1) | 17031(125->1) | 17162(126->1) | 17293(127->1) | ]
cr the 1-th chain: [ 1->2->8->14->20->26->32->38->44->50->56->62->68->74->80->86->92->98->104->110->116->122->1 ] (#non-depot=21) {#cumul.=22}
cr the 2-th chain: [ 1->3->9->15->21->27->33->39->45->51->57->63->69->75->81->87->93->99->105->111->117->123->1 ] (#non-depot=21) {#cumul.=43}
cr the 3-th chain: [ 1->4->10->16->22->28->34->40->46->52->58->64->70->76->82->88->94->100->106->112->118->124->1 ] (#non-depot=21) {#cumul.=64}
cr the 4-th chain: [ 1->5->11->17->23->29->35->41->47->53->59->65->71->77->83->89->95->101->107->113->119->125->1 ] (#non-depot=21) {#cumul.=85}
cr the 5-th chain: [ 1->6->12->18->24->30->36->42->48->54->60->66->72->78->84->90->96->102->108->114->120->126->1 ] (#non-depot=21) {#cumul.=106}
cr the 6-th chain: [ 1->7->13->19->25->31->37->43->49->55->61->67->73->79->85->91->97->103->109->115->121->127->1 ] (#non-depot=21) {#cumul.=127}
c Latest Answer = 0 by 1 loops
c restarts              : 6001
c conflicts             : 1061249        (295 /sec)
c decisions             : 109454114      (0.00 % random) (30414 /sec)
c propagations          : 26909839414    (7477324 /sec)
c conflict literals     : 147518202      (30.63 % deleted)
c Memory used           : 4680.00 MB
c CPU time              : 3598.86 s
